* #variable= 21 #constraint= 37
****************************************
min: +10 x10 +10 x11 +10 x12 +10 x13 +10 x14 +10 x15 +10 x16 +10 x17 +10 x18 +10 x19 +1 x20 ;
+1 x0 +1 x1 +1 x2 +1 x3 +1 x10 >= 1 ;
-1 x0 +1 x1 -1 x2 +1 x3 +1 x10 >= -1 ;
+1 x0 -1 x1 +1 x2 -1 x3 +1 x10 >= -1 ;
-1 x0 -1 x1 -1 x2 -1 x3 +1 x10 >= -3 ;
+1 x0 +1 x1 +1 x6 +1 x7 +1 x11 >= 1 ;
-1 x0 +1 x1 -1 x6 +1 x7 +1 x11 >= -1 ;
+1 x0 -1 x1 +1 x6 -1 x7 +1 x11 >= -1 ;
-1 x0 -1 x1 -1 x6 -1 x7 +1 x11 >= -3 ;
+1 x0 +1 x1 +1 x8 +1 x9 +1 x12 >= 1 ;
-1 x0 +1 x1 -1 x8 +1 x9 +1 x12 >= -1 ;
+1 x0 -1 x1 +1 x8 -1 x9 +1 x12 >= -1 ;
-1 x0 -1 x1 -1 x8 -1 x9 +1 x12 >= -3 ;
+1 x2 +1 x3 +1 x6 +1 x7 +1 x14 >= 1 ;
-1 x2 +1 x3 -1 x6 +1 x7 +1 x14 >= -1 ;
+1 x2 -1 x3 +1 x6 -1 x7 +1 x14 >= -1 ;
-1 x2 -1 x3 -1 x6 -1 x7 +1 x14 >= -3 ;
+1 x2 +1 x3 +1 x8 +1 x9 +1 x15 >= 1 ;
-1 x2 +1 x3 -1 x8 +1 x9 +1 x15 >= -1 ;
+1 x2 -1 x3 +1 x8 -1 x9 +1 x15 >= -1 ;
-1 x2 -1 x3 -1 x8 -1 x9 +1 x15 >= -3 ;
+1 x2 -1 x4 -1 x20 <= 0 ;
-1 x2 +1 x4 -1 x20 <= 0 ;
+1 x3 -1 x5 -1 x20 <= 0 ;
-1 x3 +1 x5 -1 x20 <= 0 ;
+1 x4 +1 x5 +1 x6 +1 x7 +1 x14 >= 1 ;
-1 x4 +1 x5 -1 x6 +1 x7 +1 x14 >= -1 ;
+1 x4 -1 x5 +1 x6 -1 x7 +1 x14 >= -1 ;
-1 x4 -1 x5 -1 x6 -1 x7 +1 x14 >= -3 ;
+1 x4 +1 x5 +1 x8 +1 x9 +1 x15 >= 1 ;
-1 x4 +1 x5 -1 x8 +1 x9 +1 x15 >= -1 ;
+1 x4 -1 x5 +1 x8 -1 x9 +1 x15 >= -1 ;
-1 x4 -1 x5 -1 x8 -1 x9 +1 x15 >= -3 ;
+1 x0 +1 x1 <= 1 ;
+1 x2 +1 x3 <= 1 ;
+1 x4 +1 x5 <= 1 ;
+1 x6 +1 x7 <= 1 ;
+1 x8 +1 x9 <= 1 ;
